[runlim] version:		1.10
[runlim] time limit:		311040000 seconds
[runlim] real time limit:	600 seconds
[runlim] space limit:		14000 MB
[runlim] argv[0]:		python3
[runlim] argv[1]:		-u
[runlim] argv[2]:		mip.py
[runlim] argv[3]:		TUD200.5
[runlim] start:			Sat Jan 24 19:57:14 2026
[runlim] main pid:		67124
Building MIP model...
[runlim] sample:		10.0 time, 10.2 real, 31.1 MB
Build time: 19.90s
[runlim] sample:		20.0 time, 20.2 real, 36.0 MB
Solving MIP (minimizing number of labels)...
Version identifier: 22.1.1.0 | 2022-11-28 | 9160aff4d
CPXPARAM_Read_DataCheck                          1
Legacy callback                                  i
Infeasibility row 'c91':  0  = 1.
Presolve time = 0.05 sec. (26.10 ticks)

Root node processing (before b&c):
  Real time             =    0.06 sec. (36.72 ticks)
Parallel b&c, 12 threads:
  Real time             =    0.00 sec. (0.00 ticks)
  Sync time (average)   =    0.00 sec.
  Wait time (average)   =    0.00 sec.
                          ------------
Total (root+branch&cut) =    0.06 sec. (36.72 ticks)
CPLEX Error  1217: No solution exists.
No solution found.
[runlim] end:			Sat Jan 24 19:57:34 2026
[runlim] status:		ok
[runlim] result:		0
[runlim] children:		0
[runlim] real:			20.27 seconds
[runlim] time:			19.97 seconds
[runlim] space:			36.0 MB
[runlim] samples:		200
